InboundTrucks  = 10;
OutboundTrucks = 10;
InboundDoors   = 8;
OutboundDoors  = 8;
ReleaseTime    = [1,2,30,66,41,114,105,59,52,97];
UnloadTime     = [13,14,23,17,14,14,18,25,14,30];
LoadTime       = [14,14,12,23,11,17,17,11,23,10];
TransferTime   = [| 0,0,0,0,0,0,0,0,0,0 | 0,0,0,0,0,0,0,0,0,0 | 0,0,0,3,0,0,8,0,0,3 | 8,0,7,0,0,0,0,8,0,0 | 0,0,0,0,8,0,0,5,0,0 | 0,4,0,0,0,0,0,6,0,0 | 5,3,4,0,0,0,0,8,0,0 | 0,5,0,6,0,0,0,5,5,4 | 8,0,0,3,0,0,0,0,8,0 | 0,3,0,0,0,4,5,0,0,0 |];
